(set-option :incremental false)
(set-logic ALL)
(declare-const BAV1 Bool)
(declare-const GEN4 Int)
(declare-const GEN3 Int)
(declare-const GEN2 Int)
(declare-const GEN1 Int)
(declare-fun x () (_ BitVec 32))
(assert (= BAV1 (= ((_ extract 14 0) ((_ extract 15 1) x)) ((_ extract 15 1) x))))
(check-sat-assuming ((not (= ((_ extract 14 0) ((_ extract 15 1) x)) ((_ extract 15 1) x)))))
(get-model)